param NumStages := 2 ;

param NumResources := 2 ;

param FixedCost :=
1    1    3186.8119048
1    2    1369.1958858
;

param MarginalCost :=
1    1    262.32319556
1    2    997.699584892
;

param Demand :=
1    31.7493075165
;

param FixedCost :=
2    1    7450.41217774
2    2    3675.08171074
;

param MarginalCost :=
2    1    43.1932663253
2    2    118.767459888
;

param Demand :=
2    65.6859771594
;


